c Created with the Wolfram Language : www.wolfram.com
c 
p edge 80 466
e 3 4
e 2 6
e 4 6
e 2 9
e 3 9
e 2 10
e 3 10
e 5 10
e 2 11
e 5 11
e 10 11
e 11 12
e 1 15
e 6 15
e 13 15
e 1 17
e 12 18
e 8 19
e 17 19
e 1 20
e 7 20
e 11 20
e 15 20
e 1 21
e 18 21
e 11 22
e 13 22
e 15 22
e 4 23
e 6 23
e 11 23
e 6 24
e 8 24
e 9 24
e 15 24
e 4 25
e 11 25
e 1 26
e 8 26
e 4 27
e 15 27
e 17 27
e 23 27
e 5 28
e 6 28
e 12 28
e 24 28
e 25 28
e 1 29
e 3 29
e 12 29
e 20 29
e 22 29
e 2 30
e 22 30
e 27 30
e 2 31
e 21 31
e 24 31
e 28 31
e 1 32
e 7 32
e 13 32
e 24 32
e 26 32
e 29 32
e 10 33
e 15 33
e 27 33
e 29 33
e 2 34
e 6 34
e 14 34
e 23 34
e 31 34
e 2 35
e 22 35
e 23 35
e 24 35
e 32 35
e 34 35
e 8 36
e 13 36
e 20 36
e 29 36
e 31 36
e 32 36
e 1 37
e 2 37
e 8 37
e 14 37
e 16 37
e 27 37
e 28 37
e 4 38
e 5 38
e 22 38
e 25 38
e 37 38
e 1 39
e 21 39
e 32 39
e 35 39
e 8 40
e 12 40
e 17 40
e 21 40
e 38 40
e 1 41
e 25 41
e 27 41
e 33 41
e 37 41
e 38 41
e 40 41
e 4 42
e 5 42
e 7 42
e 8 42
e 11 42
e 15 42
e 18 42
e 24 42
e 30 42
e 33 42
e 35 42
e 36 42
e 8 43
e 18 43
e 24 43
e 27 43
e 30 43
e 3 44
e 6 44
e 7 44
e 12 44
e 13 44
e 15 44
e 28 44
e 34 44
e 36 44
e 1 45
e 2 45
e 6 45
e 7 45
e 25 45
e 26 45
e 27 45
e 31 45
e 33 45
e 16 46
e 24 46
e 25 46
e 27 46
e 33 46
e 25 47
e 29 47
e 39 47
e 2 48
e 3 48
e 10 48
e 12 48
e 14 48
e 16 48
e 17 48
e 18 48
e 27 48
e 5 49
e 19 49
e 24 49
e 37 49
e 40 49
e 46 49
e 15 50
e 21 50
e 32 50
e 45 50
e 7 51
e 20 51
e 31 51
e 35 51
e 36 51
e 38 51
e 45 51
e 5 52
e 19 52
e 22 52
e 33 52
e 38 52
e 48 52
e 10 53
e 20 53
e 26 53
e 32 53
e 38 53
e 41 53
e 45 53
e 51 53
e 52 53
e 2 54
e 12 54
e 22 54
e 23 54
e 25 54
e 42 54
e 43 54
e 47 54
e 9 55
e 23 55
e 30 55
e 32 55
e 37 55
e 41 55
e 52 55
e 6 56
e 7 56
e 11 56
e 13 56
e 16 56
e 19 56
e 32 56
e 34 56
e 17 57
e 20 57
e 27 57
e 35 57
e 36 57
e 37 57
e 39 57
e 42 57
e 47 57
e 51 57
e 55 57
e 12 58
e 22 58
e 23 58
e 24 58
e 27 58
e 51 58
e 55 58
e 56 58
e 10 59
e 11 59
e 22 59
e 40 59
e 41 59
e 44 59
e 56 59
e 4 60
e 7 60
e 12 60
e 14 60
e 24 60
e 31 60
e 39 60
e 41 60
e 42 60
e 51 60
e 8 61
e 18 61
e 25 61
e 40 61
e 42 61
e 50 61
e 1 62
e 17 62
e 34 62
e 47 62
e 56 62
e 58 62
e 12 63
e 21 63
e 28 63
e 32 63
e 36 63
e 39 63
e 40 63
e 41 63
e 56 63
e 62 63
e 6 64
e 7 64
e 8 64
e 9 64
e 28 64
e 35 64
e 60 64
e 2 65
e 14 65
e 27 65
e 29 65
e 35 65
e 38 65
e 45 65
e 49 65
e 50 65
e 53 65
e 55 65
e 56 65
e 62 65
e 21 66
e 39 66
e 46 66
e 51 66
e 52 66
e 53 66
e 18 67
e 19 67
e 22 67
e 26 67
e 28 67
e 30 67
e 41 67
e 44 67
e 53 67
e 58 67
e 62 67
e 66 67
e 2 68
e 17 68
e 26 68
e 36 68
e 38 68
e 39 68
e 41 68
e 42 68
e 52 68
e 59 68
e 13 69
e 25 69
e 28 69
e 33 69
e 34 69
e 35 69
e 39 69
e 41 69
e 42 69
e 44 69
e 55 69
e 60 69
e 62 69
e 64 69
e 66 69
e 67 69
e 6 70
e 8 70
e 12 70
e 26 70
e 31 70
e 32 70
e 33 70
e 39 70
e 41 70
e 44 70
e 65 70
e 66 70
e 69 70
e 2 71
e 9 71
e 28 71
e 33 71
e 36 71
e 37 71
e 40 71
e 44 71
e 47 71
e 50 71
e 52 71
e 58 71
e 61 71
e 68 71
e 7 72
e 13 72
e 25 72
e 28 72
e 31 72
e 33 72
e 51 72
e 71 72
e 2 73
e 18 73
e 24 73
e 30 73
e 36 73
e 38 73
e 43 73
e 45 73
e 49 73
e 56 73
e 59 73
e 61 73
e 63 73
e 64 73
e 69 73
e 70 73
e 6 74
e 9 74
e 12 74
e 13 74
e 22 74
e 37 74
e 39 74
e 47 74
e 48 74
e 2 75
e 6 75
e 12 75
e 14 75
e 37 75
e 48 75
e 55 75
e 56 75
e 58 75
e 15 76
e 27 76
e 30 76
e 38 76
e 50 76
e 54 76
e 61 76
e 69 76
e 71 76
e 15 77
e 29 77
e 38 77
e 51 77
e 55 77
e 56 77
e 63 77
e 65 77
e 68 77
e 69 77
e 72 77
e 5 78
e 13 78
e 19 78
e 20 78
e 28 78
e 32 78
e 52 78
e 53 78
e 54 78
e 59 78
e 61 78
e 66 78
e 72 78
e 7 79
e 19 79
e 24 79
e 41 79
e 51 79
e 60 79
e 62 79
e 69 79
e 71 79
e 77 79
e 78 79
e 10 80
e 14 80
e 15 80
e 33 80
e 44 80
e 47 80
e 52 80
e 73 80
e 78 80
